p tw 70 9451 2 
1 3 
1 4 
1 5 
1 6 
1 7 
1 8 
1 9 
1 10 
1 11 
1 12 
1 13 
1 14 
1 15 
1 16 
1 17 
1 18 
1 19 
1 25 
1 31 
1 36 
1 43 
1 52 
1 54 
1 59 
1 60 
1 61 
2 3 
2 4 
2 5 
2 6 
2 7 
2 8 
2 9 
2 10 
2 11 
2 18 
2 20 
2 21 
2 22 
2 23 
2 24 
2 25 
2 26 
2 27 
2 33 
2 35 
2 48 
2 52 
2 58 
2 67 
2 68 
2 69 
3 4 
3 5 
3 6 
3 7 
3 8 
3 9 
3 10 
3 12 
3 15 
3 20 
3 23 
3 28 
3 29 
3 30 
3 31 
3 32 
3 33 
3 34 
3 36 
3 41 
3 46 
3 47 
3 48 
3 49 
3 50 
4 5 
4 6 
4 7 
4 8 
4 9 
4 10 
4 13 
4 17 
4 21 
4 23 
4 28 
4 29 
4 35 
4 36 
4 37 
4 38 
4 39 
4 40 
4 51 
4 54 
4 55 
4 56 
4 57 
4 58 
5 6 
5 7 
5 8 
5 9 
5 10 
5 14 
5 17 
5 22 
5 25 
5 29 
5 30 
5 35 
5 39 
5 41 
5 42 
5 43 
5 44 
5 45 
5 50 
5 63 
5 65 
5 66 
5 67 
6 7 
6 8 
6 9 
6 10 
6 16 
6 18 
6 21 
6 24 
6 30 
6 32 
6 37 
6 42 
6 43 
6 46 
6 47 
6 51 
6 52 
6 53 
6 55 
6 62 
6 63 
6 64 
7 8 
7 9 
7 10 
7 15 
7 19 
7 22 
7 26 
7 28 
7 33 
7 37 
7 44 
7 50 
7 51 
7 56 
7 59 
7 61 
7 62 
7 64 
7 65 
7 69 
7 70 
8 9 
8 10 
8 12 
8 19 
8 24 
8 27 
8 34 
8 38 
8 40 
8 41 
8 44 
8 48 
8 53 
8 55 
8 57 
8 59 
8 60 
8 63 
8 66 
8 69 
9 10 
9 13 
9 16 
9 26 
9 27 
9 32 
9 34 
9 38 
9 42 
9 45 
9 47 
9 49 
9 54 
9 57 
9 61 
9 65 
9 67 
9 68 
9 70 
10 11 
10 14 
10 20 
10 31 
10 39 
10 40 
10 45 
10 46 
10 49 
10 53 
10 56 
10 58 
10 60 
10 62 
10 64 
10 66 
10 68 
10 70 
11 12 
11 13 
11 14 
11 15 
11 16 
11 17 
11 18 
11 19 
11 20 
11 21 
11 22 
11 23 
11 24 
11 25 
11 26 
11 27 
11 31 
11 40 
11 45 
11 46 
11 58 
11 62 
11 66 
11 70 
12 13 
12 14 
12 15 
12 16 
12 17 
12 18 
12 19 
12 20 
12 27 
12 28 
12 29 
12 30 
12 31 
12 32 
12 33 
12 34 
12 40 
12 41 
12 53 
12 57 
12 59 
12 63 
12 69 
13 14 
13 15 
13 16 
13 17 
13 18 
13 19 
13 21 
13 27 
13 28 
13 34 
13 35 
13 36 
13 37 
13 38 
13 39 
13 40 
13 42 
13 47 
13 54 
13 65 
13 68 
13 70 
14 15 
14 16 
14 17 
14 18 
14 19 
14 20 
14 22 
14 29 
14 35 
14 39 
14 41 
14 42 
14 43 
14 44 
14 45 
14 49 
14 53 
14 56 
14 60 
14 64 
14 68 
15 16 
15 17 
15 18 
15 19 
15 23 
15 26 
15 33 
15 36 
15 37 
15 41 
15 44 
15 46 
15 47 
15 48 
15 49 
15 50 
15 56 
15 59 
15 62 
15 65 
16 17 
16 18 
16 19 
16 24 
16 26 
16 30 
16 32 
16 37 
16 38 
16 42 
16 45 
16 46 
16 49 
16 51 
16 52 
16 53 
16 57 
16 61 
16 67 
17 18 
17 19 
17 23 
17 25 
17 29 
17 30 
17 39 
17 50 
17 51 
17 54 
17 55 
17 56 
17 57 
17 58 
17 63 
17 65 
17 66 
17 67 
18 19 
18 21 
18 32 
18 33 
18 35 
18 43 
18 47 
18 48 
18 52 
18 55 
18 58 
18 62 
18 63 
18 64 
18 67 
18 68 
18 69 
19 22 
19 24 
19 28 
19 34 
19 38 
19 44 
19 48 
19 50 
19 51 
19 55 
19 60 
19 61 
19 64 
19 66 
19 69 
19 70 
20 21 
20 22 
20 23 
20 24 
20 25 
20 26 
20 27 
20 28 
20 29 
20 30 
20 31 
20 32 
20 33 
20 34 
20 39 
20 49 
20 53 
20 56 
20 60 
20 64 
20 68 
21 22 
21 23 
21 24 
21 25 
21 26 
21 27 
21 28 
21 32 
21 35 
21 36 
21 37 
21 38 
21 39 
21 40 
21 43 
21 47 
21 55 
21 62 
21 63 
21 64 
22 23 
22 24 
22 25 
22 26 
22 27 
22 28 
22 29 
22 35 
22 41 
22 42 
22 43 
22 44 
22 45 
22 50 
22 51 
22 61 
22 64 
22 69 
22 70 
23 24 
23 25 
23 26 
23 27 
23 29 
23 36 
23 41 
23 46 
23 47 
23 48 
23 49 
23 50 
23 51 
23 54 
23 55 
23 56 
23 57 
23 58 
24 25 
24 26 
24 27 
24 30 
24 34 
24 37 
24 38 
24 42 
24 44 
24 46 
24 48 
24 51 
24 52 
24 53 
24 55 
24 60 
24 66 
25 26 
25 27 
25 30 
25 31 
25 36 
25 39 
25 43 
25 50 
25 52 
25 54 
25 59 
25 60 
25 61 
25 63 
25 65 
25 66 
25 67 
26 27 
26 32 
26 33 
26 37 
26 38 
26 44 
26 45 
26 49 
26 56 
26 57 
26 59 
26 61 
26 62 
26 65 
26 67 
27 34 
27 40 
27 41 
27 42 
27 47 
27 53 
27 54 
27 57 
27 59 
27 63 
27 65 
27 68 
27 69 
27 70 
28 29 
28 30 
28 31 
28 32 
28 33 
28 34 
28 35 
28 36 
28 37 
28 38 
28 39 
28 40 
28 50 
28 51 
28 61 
28 64 
28 69 
28 70 
29 30 
29 31 
29 32 
29 33 
29 34 
29 35 
29 41 
29 42 
29 43 
29 44 
29 45 
29 51 
29 54 
29 55 
29 56 
29 57 
29 58 
30 31 
30 32 
30 33 
30 34 
30 37 
30 39 
30 42 
30 46 
30 50 
30 51 
30 52 
30 53 
30 63 
30 65 
30 66 
30 67 
31 32 
31 33 
31 34 
31 36 
31 40 
31 43 
31 45 
31 46 
31 52 
31 54 
31 58 
31 59 
31 60 
31 61 
31 62 
31 66 
31 70 
32 33 
32 34 
32 38 
32 43 
32 45 
32 47 
32 49 
32 55 
32 57 
32 61 
32 62 
32 63 
32 64 
32 67 
33 34 
33 35 
33 37 
33 44 
33 48 
33 52 
33 56 
33 58 
33 59 
33 62 
33 65 
33 67 
33 68 
33 69 
34 38 
34 42 
34 44 
34 47 
34 48 
34 54 
34 55 
34 60 
34 65 
34 66 
34 68 
34 70 
35 36 
35 37 
35 38 
35 39 
35 40 
35 41 
35 42 
35 43 
35 44 
35 45 
35 48 
35 52 
35 58 
35 67 
35 68 
35 69 
36 37 
36 38 
36 39 
36 40 
36 41 
36 43 
36 46 
36 47 
36 48 
36 49 
36 50 
36 52 
36 54 
36 59 
36 60 
36 61 
37 38 
37 39 
37 40 
37 42 
37 44 
37 46 
37 51 
37 52 
37 53 
37 56 
37 59 
37 62 
37 65 
38 39 
38 40 
38 44 
38 45 
38 48 
38 49 
38 55 
38 57 
38 60 
38 61 
38 66 
38 67 
39 40 
39 49 
39 50 
39 53 
39 56 
39 60 
39 63 
39 64 
39 65 
39 66 
39 67 
39 68 
40 41 
40 45 
40 46 
40 53 
40 57 
40 58 
40 59 
40 62 
40 63 
40 66 
40 69 
40 70 
41 42 
41 43 
41 44 
41 45 
41 46 
41 47 
41 48 
41 49 
41 50 
41 53 
41 57 
41 59 
41 63 
41 69 
42 43 
42 44 
42 45 
42 46 
42 47 
42 51 
42 52 
42 53 
42 54 
42 65 
42 68 
42 70 
43 44 
43 45 
43 47 
43 52 
43 54 
43 55 
43 59 
43 60 
43 61 
43 62 
43 63 
43 64 
44 45 
44 48 
44 55 
44 56 
44 59 
44 60 
44 62 
44 65 
44 66 
45 46 
45 49 
45 57 
45 58 
45 61 
45 62 
45 66 
45 67 
45 70 
46 47 
46 48 
46 49 
46 50 
46 51 
46 52 
46 53 
46 58 
46 62 
46 66 
46 70 
47 48 
47 49 
47 50 
47 54 
47 55 
47 62 
47 63 
47 64 
47 65 
47 68 
47 70 
48 49 
48 50 
48 52 
48 55 
48 58 
48 60 
48 66 
48 67 
48 68 
48 69 
49 50 
49 53 
49 56 
49 57 
49 60 
49 61 
49 64 
49 67 
49 68 
50 51 
50 61 
50 63 
50 64 
50 65 
50 66 
50 67 
50 69 
50 70 
51 52 
51 53 
51 54 
51 55 
51 56 
51 57 
51 58 
51 61 
51 64 
51 69 
51 70 
52 53 
52 54 
52 58 
52 59 
52 60 
52 61 
52 67 
52 68 
52 69 
53 56 
53 57 
53 59 
53 60 
53 63 
53 64 
53 68 
53 69 
54 55 
54 56 
54 57 
54 58 
54 59 
54 60 
54 61 
54 65 
54 68 
54 70 
55 56 
55 57 
55 58 
55 60 
55 62 
55 63 
55 64 
55 66 
56 57 
56 58 
56 59 
56 60 
56 62 
56 64 
56 65 
56 68 
57 58 
57 59 
57 61 
57 63 
57 67 
57 69 
58 62 
58 66 
58 67 
58 68 
58 69 
58 70 
59 60 
59 61 
59 62 
59 63 
59 65 
59 69 
60 61 
60 64 
60 66 
60 68 
61 64 
61 67 
61 69 
61 70 
62 63 
62 64 
62 65 
62 66 
62 70 
63 64 
63 65 
63 66 
63 67 
63 69 
64 68 
64 69 
64 70 
65 66 
65 67 
65 68 
65 70 
66 67 
66 70 
67 68 
67 69 
68 69 
68 70 
69 70 
